p cnf 128 192
1 0
-66 2 0
-66 -3 0
66 -2 3 0
-67 66 0
-67 -4 0
67 -66 4 0
-68 67 0
-68 -5 0
68 -67 5 0
-69 68 0
-69 -6 0
69 -68 6 0
-70 69 0
-70 -7 0
70 -69 7 0
-71 70 0
-71 -8 0
71 -70 8 0
-72 71 0
-72 -9 0
72 -71 9 0
-73 72 0
-73 -10 0
73 -72 10 0
-74 73 0
-74 -11 0
74 -73 11 0
-75 74 0
-75 -12 0
75 -74 12 0
-76 75 0
-76 -13 0
76 -75 13 0
-77 76 0
-77 -14 0
77 -76 14 0
-78 77 0
-78 -15 0
78 -77 15 0
-79 78 0
-79 -16 0
79 -78 16 0
-80 79 0
-80 -17 0
80 -79 17 0
-81 80 0
-81 -18 0
81 -80 18 0
-82 81 0
-82 -19 0
82 -81 19 0
-83 82 0
-83 -20 0
83 -82 20 0
-84 83 0
-84 -21 0
84 -83 21 0
-85 84 0
-85 -22 0
85 -84 22 0
-86 85 0
-86 -23 0
86 -85 23 0
-87 86 0
-87 -24 0
87 -86 24 0
-88 87 0
-88 -25 0
88 -87 25 0
-89 88 0
-89 -26 0
89 -88 26 0
-90 89 0
-90 -27 0
90 -89 27 0
-91 90 0
-91 -28 0
91 -90 28 0
-92 91 0
-92 -29 0
92 -91 29 0
-93 92 0
-93 -30 0
93 -92 30 0
-94 93 0
-94 -31 0
94 -93 31 0
-95 94 0
-95 -32 0
95 -94 32 0
-96 95 0
-96 -33 0
96 -95 33 0
-97 96 0
-97 -34 0
97 -96 34 0
-98 97 0
-98 -35 0
98 -97 35 0
-99 98 0
-99 -36 0
99 -98 36 0
-100 99 0
-100 -37 0
100 -99 37 0
-101 100 0
-101 -38 0
101 -100 38 0
-102 101 0
-102 -39 0
102 -101 39 0
-103 102 0
-103 -40 0
103 -102 40 0
-104 103 0
-104 -41 0
104 -103 41 0
-105 104 0
-105 -42 0
105 -104 42 0
-106 105 0
-106 -43 0
106 -105 43 0
-107 106 0
-107 -44 0
107 -106 44 0
-108 107 0
-108 -45 0
108 -107 45 0
-109 108 0
-109 -46 0
109 -108 46 0
-110 109 0
-110 -47 0
110 -109 47 0
-111 110 0
-111 -48 0
111 -110 48 0
-112 111 0
-112 -49 0
112 -111 49 0
-113 112 0
-113 -50 0
113 -112 50 0
-114 113 0
-114 -51 0
114 -113 51 0
-115 114 0
-115 -52 0
115 -114 52 0
-116 115 0
-116 -53 0
116 -115 53 0
-117 116 0
-117 -54 0
117 -116 54 0
-118 117 0
-118 -55 0
118 -117 55 0
-119 118 0
-119 -56 0
119 -118 56 0
-120 119 0
-120 -57 0
120 -119 57 0
-121 120 0
-121 -58 0
121 -120 58 0
-122 121 0
-122 -59 0
122 -121 59 0
-123 122 0
-123 -60 0
123 -122 60 0
-124 123 0
-124 -61 0
124 -123 61 0
-125 124 0
-125 -62 0
125 -124 62 0
-126 125 0
-126 -63 0
126 -125 63 0
-127 126 0
-127 -64 0
127 -126 64 0
-128 127 0
-128 -65 0
128 -127 65 0
128 0
-128 0
